
Gurobi 11.0.3 (linux64) logging started Wed Nov 12 20:05:35 2025

Set parameter LogFile to value "./log/train/CA_500_600_threads_0/CA_26.lp.log"
Set parameter TimeLimit to value 3600
Gurobi Optimizer version 11.0.3 build v11.0.3rc0 (linux64 - "Ubuntu 22.04.5 LTS")

CPU model: AMD Ryzen 9 9900X 12-Core Processor, instruction set [SSE2|AVX|AVX2|AVX512]
Thread count: 12 physical cores, 24 logical processors, using up to 24 threads

Optimize a model with 592 rows, 600 columns and 2898 nonzeros
Model fingerprint: 0x2a731663
Variable types: 0 continuous, 600 integer (600 binary)
Coefficient statistics:
  Matrix range     [1e+00, 1e+00]
  Objective range  [2e+00, 1e+03]
  Bounds range     [1e+00, 1e+00]
  RHS range        [1e+00, 1e+00]
Found heuristic solution: objective 18486.663854
Presolve removed 49 rows and 86 columns
Presolve time: 0.01s
Presolved: 543 rows, 514 columns, 2794 nonzeros
Found heuristic solution: objective 22661.773936
Variable types: 0 continuous, 514 integer (514 binary)
Found heuristic solution: objective 23967.293718

Root relaxation: objective 2.888961e+04, 1254 iterations, 0.03 seconds (0.07 work units)

    Nodes    |    Current Node    |     Objective Bounds      |     Work
 Expl Unexpl |  Obj  Depth IntInf | Incumbent    BestBd   Gap | It/Node Time

     0     0 28889.6093    0  294 23967.2937 28889.6093  20.5%     -    0s
H    0     0                    24055.550656 28889.6093  20.1%     -    0s
H    0     0                    24123.030621 28886.3645  19.7%     -    0s
     0     0 28804.3240    0  303 24123.0306 28804.3240  19.4%     -    0s
     0     0 28558.4634    0  306 24123.0306 28558.4634  18.4%     -    0s
     0     0 28558.4634    0  307 24123.0306 28558.4634  18.4%     -    0s
     0     0 28558.4634    0  307 24123.0306 28558.4634  18.4%     -    0s
H    0     0                    25282.213969 28541.0000  12.9%     -    0s
     0     0 28458.0931    0  307 25282.2140 28458.0931  12.6%     -    0s
     0     0 28458.0931    0  307 25282.2140 28458.0931  12.6%     -    0s
H    0     0                    25499.740768 28458.0931  11.6%     -    0s
     0     2 28458.0931    0  307 25499.7408 28458.0931  11.6%     -    0s
H   28    40                    25629.826027 28458.0931  11.0%   250    0s
H   82    84                    25650.093920 28458.0931  10.9%   196    0s
H   87   108                    25680.983098 28458.0931  10.8%   192    0s
H   95   108                    25912.763548 28458.0931  9.82%   187    0s
H  109   131                    25926.097914 28458.0931  9.77%   179    0s
H  111   131                    26046.652057 28458.0931  9.26%   178    0s
H  134   159                    26156.668558 28458.0931  8.80%   166    0s
H  160   163                    26183.517740 28458.0931  8.69%   154    0s
H  177   163                    26414.242481 28458.0931  7.74%   147    0s
 10786  2539 26739.1002   26  215 26414.2425 27216.6149  3.04%   101    5s

Cutting planes:
  Gomory: 1
  Clique: 20
  MIR: 1
  Zero half: 2

Explored 46821 nodes (3912487 simplex iterations) in 9.22 seconds (23.85 work units)
Thread count was 24 (of 24 available processors)

Solution count 10: 26414.2 26183.5 26156.7 ... 25499.7

Optimal solution found (tolerance 1.00e-04)
Best objective 2.641424248083e+04, best bound 2.641424248083e+04, gap 0.0000%

User-callback calls 95620, time in user-callback 0.06 sec
